c ---- [ banner ] ------------------------------------------------------------
c
c Kissat SAT Solver
c 
c Copyright (c) 2021-2024 Armin Biere University of Freiburg
c Copyright (c) 2019-2021 Armin Biere Johannes Kepler University Linz
c 
c Version 4.0.1 43f02cf3e992cb44653b35e5cb26f93281552ae0
c gcc (Ubuntu 13.2.0-23ubuntu4) 13.2.0 -W -Wall -O3 -DNDEBUG
c Thu Sep 12 12:27:46 CEST 2024 Linux abryzen9 6.8.0-41-generic x86_64
c
c ---- [ parsing ] -----------------------------------------------------------
c
c opened and reading DIMACS file:
c
c   /data/artifact/AMulet2.0_artifact/exp4/cnf_dc2_64/64_64_U2_DT_JCA_Multgen_dc2.cnf
c
c parsed 'p cnf 34039 152427' header
c closing input after reading 3087819 bytes (3 MB)
c finished parsing after 0.03 seconds
c
c ---- [ options ] -----------------------------------------------------------
c
c --stable=0                       (different from default '1')
c
c ---- [ solving ] -----------------------------------------------------------
c
c  seconds switched rate     size/glue tier1  binary          remaining
c         MB reductions conflicts size  tier2    irredundant
c          level restarts redundant glue  trail          variables
c
c *  0.03 13 0 0 0  0 0   0   0 0.0 0 0 0 0 0% 2600 149825 34036 100%
c (  0.05 15 0 0 0  0 0   0   0 0.0 0 0 0 0 0% 2600 149825 34036 100%
c .  0.05 15 0 0 0  0 0   0   0 0.0 0 0 0 0 0% 2596 149825 34036 100%
c c  0.13 26 0 0 0  0 0   0   0 0.0 0 0 0 0 0% 16070 122889 27300 80%
c d  0.14 26 0 0 0  0 0   0   0 0.0 0 0 0 0 0% 2596 122889 27300 80%
c =  0.18 26 0 0 0  0 0   0   0 0.0 0 0 0 0 0% 3192 122889 26999 79%
c d  0.19 26 0 0 0  0 0   0   0 0.0 0 0 0 0 0% 2590 122889 26999 79%
c f  0.28 25 0 0 0  0 0   0   0 0.0 0 0 0 0 0% 8922 113340 30182 89%
c e  0.48 28 0 0 0  0 0   0   0 0.0 0 0 0 0 0% 1508 123132 20236 59%
c )  0.48 28 0 0 0  0 0   0   0 0.0 0 0 0 0 0% 1508 123132 20236 59%
c {  0.50 28 0 0 0  0 0   0   0 0.0 0 0 2 6 0% 1508 123132 20236 59%
c -  0.61 28 165 0 1 112 18 1000 805 1.9 8 5 3 8 17% 1524 123132 20236 59%
c -  0.74 28 183 0 2 234 27 2000 1584 2.5 12 5 3 8 19% 1533 123132 20236 59%
c c  0.86 28 228 0 2 311 33 2505 2033 2.9 14 5 3 8 20% 2230 120348 19887 58%
c d  0.87 28 228 0 2 311 33 2505 2022 2.9 14 5 3 8 20% 1532 120348 19887 58%
c u  0.88 28 228 0 2 311 33 2505 1697 2.9 14 5 3 8 20% 1534 120348 19887 58%
c v  0.89 28 228 0 2 311 33 2505 1472 2.9 14 5 3 8 20% 1534 120348 19887 58%
c w  0.90 28 228 0 2 311 33 2505 1472 2.9 14 5 3 8 20% 1534 120348 19887 58%
c x  0.92 28 228 0 2 311 33 2505 1472 2.9 14 5 3 8 20% 1534 120321 19887 58%
c =  0.96 28 228 0 2 311 33 2505 1472 2.9 14 5 3 8 20% 1710 120321 19799 58%
c
c  seconds   switched   rate       size/glue tier1    binary          remaining
c         MB  reductions conflicts       size  tier2     irredundant
c           level restarts    redundant    glue   trail          variables
c
c d  0.96 28 228 0 2 311 33 2505 1470 2.9 14 5 3 8 20% 1534 120321 19799 58%
c t  0.97 28 228 0 2 311 33 2505 1470 2.9 14 5 3 8 20% 1529 120321 19799 58%
c f  0.98 28 228 0 2 311 33 2505 1470 2.9 14 5 3 8 20% 1559 120276 19814 58%
c u  1.04 28 228 0 2 311 33 2505 1422 2.9 14 5 3 8 20% 1560 120276 19814 58%
c v  1.05 28 228 0 2 311 33 2505 1367 2.9 14 5 3 8 20% 1560 120276 19814 58%
c w  1.07 28 228 0 2 311 33 2505 1355 2.9 14 5 3 8 20% 1560 120276 19814 58%
c =  1.12 28 228 0 2 311 33 2505 1355 2.9 14 5 3 8 20% 1646 120276 19771 58%
c d  1.12 28 228 0 2 311 33 2505 1355 2.9 14 5 3 8 20% 1560 120276 19771 58%
c t  1.13 28 228 0 2 311 33 2505 1355 2.9 14 5 3 8 20% 1549 120276 19771 58%
c f  1.14 28 228 0 2 311 33 2505 1355 2.9 14 5 3 8 20% 1621 120167 19807 58%
c -  1.29 28 242 0 3 428 38 3414 2012 3.3 16 5 3 9 23% 1627 120167 19807 58%
c -  1.82 28 245 0 4 781 45 5146 3230 3.8 20 5 3 9 26% 1658 120167 19807 58%
c -  2.43 28 275 0 5 1029 48 7147 4321 4.3 24 5 2 8 26% 1725 120167 19807 58%
c d  2.66 28 272 0 5 1093 48 7712 4765 4.3 24 5 2 8 27% 1689 120167 19778 58%
c u  2.69 28 272 0 5 1093 48 7712 4491 4.3 24 5 2 8 27% 1695 120167 19778 58%
c v  2.73 28 272 0 5 1093 48 7712 3739 4.3 24 5 2 8 27% 1695 120167 19778 58%
c w  2.78 28 272 0 5 1093 48 7712 3722 4.3 24 5 2 8 27% 1695 120167 19778 58%
c x  2.84 28 272 0 5 1093 48 7712 3722 4.3 24 5 2 8 27% 1695 119637 19778 58%
c =  3.02 28 272 0 5 1093 48 7712 3722 4.3 24 5 2 8 27% 2467 119637 19392 57%
c d  3.03 28 272 0 5 1093 48 7712 3701 4.3 24 5 2 8 27% 1677 119637 19392 57%
c
c  seconds   switched    rate       size/glue tier1    binary          remaining
c         MB  reductions  conflicts       size  tier2     irredundant
c           level  restarts    redundant    glue   trail          variables
c
c t  3.05 28 272 0 5 1093 48 7712 3701 4.3 24 5 2 8 27% 1675 119637 19392 57%
c f  3.10 28 272 0 5 1093 48 7712 3701 4.3 24 5 2 8 27% 1765 119502 19437 57%
c u  3.21 28 272 0 5 1093 48 7712 3626 4.3 24 5 2 8 27% 1765 119502 19437 57%
c v  3.23 28 272 0 5 1093 48 7712 3551 4.3 24 5 2 8 27% 1765 119502 19437 57%
c w  3.28 28 272 0 5 1093 48 7712 3544 4.3 24 5 2 8 27% 1765 119502 19437 57%
c x  3.34 28 272 0 5 1093 48 7712 3544 4.3 24 5 2 8 27% 1781 116914 19437 57%
c =  3.52 28 272 0 5 1093 48 7712 3544 4.3 24 5 2 8 27% 2013 116914 19321 57%
c d  3.52 28 272 0 5 1093 48 7712 3535 4.3 24 5 2 8 27% 1778 116914 19321 57%
c t  3.54 28 272 0 5 1093 48 7712 3535 4.3 24 5 2 8 27% 1735 116914 19321 57%
c f  3.58 28 272 0 5 1093 48 7712 3535 4.3 24 5 2 8 27% 1745 116899 19326 57%
c -  3.99 28 287 0 6 1263 47 9383 4536 4.2 23 6 2 8 27% 1774 116899 19326 57%
c o  4.32 28 293 0 6 1367 49 10052 5093 3.9 28 7 2 8 27% 1799 116899 19326 57%
c -  4.75 28 297 0 7 1488 46 11832 6007 3.9 29 7 2 8 28% 1828 116898 19326 57%
c s  4.93 28 291 0 7 1519 45 12520 6649 3.9 28 7 2 8 28% 1835 114160 19326 57%
c e  5.05 28 291 0 7 1519 45 12520 6649 3.9 28 7 2 8 28% 1335 114469 18980 56%
c s  5.05 28 291 0 7 1519 45 12520 6649 3.9 28 7 2 8 28% 1338 114337 18980 56%
c e  5.06 28 291 0 7 1519 45 12520 6649 3.9 28 7 2 8 28% 1327 114346 18977 56%
c ^  5.06 28 291 0 7 1519 45 12520 6649 3.9 28 7 2 8 28% 1327 114346 18977 56%
c -  5.68 28 294 0 8 1671 43 14479 7317 4.0 30 7 2 8 28% 1362 114346 18977 56%
c d  5.96 28 291 0 8 1724 41 15796 8527 3.9 29 7 2 8 28% 1355 114346 18964 56%
c
c  seconds   switched    rate        size/glue tier1    binary          remaining
c         MB  reductions   conflicts       size  tier2     irredundant
c           level  restarts     redundant    glue   trail          variables
c
c u  6.01 28 291 0 8 1724 41 15796 7891 3.9 29 7 2 8 28% 1359 114346 18964 56%
c v  6.07 28 291 0 8 1724 41 15796 6759 3.9 29 7 2 8 28% 1359 114346 18964 56%
c w  6.12 28 291 0 8 1724 41 15796 6746 3.9 29 7 2 8 28% 1359 114346 18964 56%
c x  6.16 28 291 0 8 1724 41 15796 6746 3.9 29 7 2 8 28% 1359 114283 18964 56%
c =  6.40 28 291 0 8 1724 41 15796 6746 3.9 29 7 2 8 28% 3733 114283 17777 52%
c d  6.41 28 291 0 8 1724 41 15796 6710 3.9 29 7 2 8 28% 1338 114283 17776 52%
c t  6.43 28 291 0 8 1724 41 15796 6710 3.9 29 7 2 8 28% 1326 114283 17776 52%
c f  6.48 28 291 0 8 1724 41 15796 6710 3.9 29 7 2 8 28% 1335 114263 17781 52%
c u  6.53 28 291 0 8 1724 41 15796 6560 3.9 29 7 2 8 28% 1335 114263 17781 52%
c v  6.57 28 291 0 8 1724 41 15796 6370 3.9 29 7 2 8 28% 1335 114263 17781 52%
c w  6.66 28 291 0 8 1724 41 15796 6335 3.9 29 7 2 8 28% 1335 114263 17781 52%
c =  6.88 28 291 0 8 1724 41 15796 6335 3.9 29 7 2 8 28% 4271 114263 16313 48%
c d  6.89 28 291 0 8 1724 41 15796 6260 3.9 29 7 2 8 28% 1258 114263 16313 48%
c f  6.97 28 291 0 8 1724 41 15796 6260 3.9 29 7 2 8 28% 1260 114257 16315 48%
c -  7.34 28 297 0 9 1848 40 17307 6826 3.9 29 7 2 8 27% 1272 114257 16315 48%
c o  8.06 28 298 0 9 2022 38 20078 9345 3.8 28 7 2 8 28% 1293 114257 16315 48%
c -  8.15 28 296 0 10 2048 38 20307 8584 3.8 28 7 2 8 28% 1293 114257 16315 48%
c -  9.02 28 288 0 11 2340 36 23469 10283 3.8 29 8 2 8 28% 1323 114257 16315 48%
c s  9.12 28 273 0 11 2388 34 25029 11125 3.7 28 8 2 8 27% 1352 96894 16315 48%
c e  9.22 28 273 0 11 2388 34 25029 11125 3.7 28 8 2 8 27% 1083 97232 16127 47%
c
c  seconds   switched     rate         size/glue tier1    binary         remaining
c         MB   reductions   conflicts        size  tier2     irredundant
c           level   restarts      redundant    glue   trail         variables
c
c 2  9.22 28 273 0 11 2388 34 25029 11125 3.7 28 8 2 8 27% 1082 97232 16127 47%
c s  9.23 28 273 0 11 2388 34 25029 11125 3.7 28 8 2 8 27% 1117 97015 16127 47%
c e  9.24 28 273 0 11 2388 34 25029 11125 3.7 28 8 2 8 27% 1116 97018 16125 47%
c ^  9.24 28 273 0 11 2388 34 25029 11125 3.7 28 8 2 8 27% 1116 97018 16125 47%
c -  9.65 28 271 0 12 2515 33 26785 10925 3.7 29 8 2 8 27% 1136 97018 16125 47%
c c  9.70 28 270 0 12 2519 33 26930 11053 3.7 29 8 2 8 27% 1176 96811 16099 47%
c d  9.71 28 270 0 12 2519 33 26930 11042 3.7 29 8 2 8 27% 1124 96811 16099 47%
c u  9.73 28 270 0 12 2519 33 26930 10057 3.7 29 8 2 8 27% 1131 96811 16099 47%
c v  9.77 28 270 0 12 2519 33 26930 8886 3.7 29 8 2 8 27% 1133 96811 16099 47%
c w  9.78 28 270 0 12 2519 33 26930 8882 3.7 29 8 2 8 27% 1133 96811 16099 47%
c x  9.81 28 270 0 12 2519 33 26930 8882 3.7 29 8 2 8 27% 1134 96751 16099 47%
c = 10.00 28 270 0 12 2519 33 26930 8882 3.7 29 8 2 8 27% 3490 96751 14921 44%
c d 10.01 28 270 0 12 2519 33 26930 8693 3.7 29 8 2 8 27% 1066 96751 14921 44%
c t 10.02 28 270 0 12 2519 33 26930 8693 3.7 29 8 2 8 27% 1045 96751 14921 44%
c f 10.07 28 270 0 12 2519 33 26930 8693 3.7 29 8 2 8 27% 1086 96648 14941 44%
c u 10.10 28 270 0 12 2519 33 26930 8415 3.7 29 8 2 8 27% 1087 96648 14941 44%
c v 10.12 28 270 0 12 2519 33 26930 8198 3.7 29 8 2 8 27% 1087 96648 14941 44%
c w 10.13 28 270 0 12 2519 33 26930 8197 3.7 29 8 2 8 27% 1087 96648 14941 44%
c t 10.29 28 270 0 12 2519 33 26930 8197 3.7 29 8 2 8 27% 1083 96648 14941 44%
c - 10.64 28 269 0 13 2680 32 30249 10085 3.6 28 8 2 7 27% 1121 96648 14941 44%
c
c  seconds   switched     rate         size/glue tier1    binary         remaining
c         MB   reductions   conflicts        size  tier2     irredundant
c           level   restarts      redundant    glue   trail         variables
c
c - 11.05 28 263 0 14 2880 30 33855 12076 3.6 27 8 2 7 27% 1161 96648 14941 44%
c - 11.37 28 264 0 15 3032 29 37596 13711 3.4 26 8 2 7 27% 1197 96648 14941 44%
c o 11.61 28 262 0 15 3149 28 40103 15935 3.4 26 8 2 7 27% 1221 96648 14941 44%
c c 11.84 28 260 0 15 3245 28 41257 16953 3.4 26 8 2 7 27% 1278 96253 14878 44%
c d 11.85 28 260 0 15 3245 28 41257 16701 3.4 26 8 2 7 27% 1147 96253 14875 44%
c u 11.90 28 260 0 15 3245 28 41257 14826 3.4 26 8 2 7 27% 1160 96253 14875 44%
c v 11.97 28 260 0 15 3245 28 41257 13701 3.4 26 8 2 7 27% 1162 96253 14875 44%
c w 12.02 28 260 0 15 3245 28 41257 13699 3.4 26 8 2 7 27% 1162 96253 14875 44%
c d 12.02 28 260 0 15 3245 28 41257 13686 3.4 26 8 2 7 27% 1150 96253 14869 44%
c t 12.03 28 260 0 15 3245 28 41257 13686 3.4 26 8 2 7 27% 1148 96253 14869 44%
c f 12.04 28 260 0 15 3245 28 41257 13686 3.4 26 8 2 7 27% 1160 96223 14875 44%
c c 12.10 28 260 0 15 3245 28 41257 13669 3.4 26 8 2 7 27% 1169 96175 14869 44%
c d 12.11 28 260 0 15 3245 28 41257 13669 3.4 26 8 2 7 27% 1157 96175 14869 44%
c u 12.16 28 260 0 15 3245 28 41257 13359 3.4 26 8 2 7 27% 1163 96175 14869 44%
c v 12.20 28 260 0 15 3245 28 41257 12601 3.4 26 8 2 7 27% 1165 96175 14869 44%
c w 12.22 28 260 0 15 3245 28 41257 12601 3.4 26 8 2 7 27% 1165 96175 14869 44%
c x 12.24 28 260 0 15 3245 28 41257 12601 3.4 26 8 2 7 27% 1165 96173 14869 44%
c d 12.37 28 260 0 15 3245 28 41257 12599 3.4 26 8 2 7 27% 1161 96173 14867 44%
c t 12.38 28 260 0 15 3245 28 41257 12599 3.4 26 8 2 7 27% 1155 96173 14867 44%
c - 12.42 28 260 0 16 3250 28 41468 11527 3.4 26 8 2 7 27% 1157 96173 14867 44%
c
c  seconds   switched     rate         size/glue tier1    binary         remaining
c         MB   reductions   conflicts        size  tier2     irredundant
c           level   restarts      redundant    glue   trail         variables
c
c - 12.72 28 257 0 17 3391 27 45468 13398 3.3 25 8 2 7 26% 1216 96173 14867 44%
c - 13.32 28 258 0 18 3683 27 49591 15382 3.4 25 8 2 6 26% 1263 96173 14867 44%
c s 13.65 28 254 0 18 3811 27 52129 17540 3.4 25 7 2 6 26% 1297 88495 14867 44%
c e 13.72 28 254 0 18 3811 27 52129 17540 3.4 25 7 2 6 26% 1123 88717 14728 43%
c s 13.72 28 254 0 18 3811 27 52129 17540 3.4 25 7 2 6 26% 1125 88466 14728 43%
c e 13.73 28 254 0 18 3811 27 52129 17540 3.4 25 7 2 6 26% 1123 88446 14721 43%
c ^ 13.73 28 254 0 18 3811 27 52129 17540 3.4 25 7 2 6 26% 1123 88446 14721 43%
c - 13.91 28 252 0 19 3873 26 53836 16318 3.3 25 7 2 6 25% 1145 88446 14721 43%
c - 14.41 28 241 0 20 4112 25 58194 18152 3.3 24 7 2 6 25% 1191 88446 14721 43%
c d 14.45 28 239 0 20 4131 25 58883 18595 3.3 24 7 2 6 25% 1163 88446 14697 43%
c u 14.50 28 239 0 20 4131 25 58883 16304 3.3 24 7 2 6 25% 1199 88446 14697 43%
c v 14.56 28 239 0 20 4131 25 58883 14940 3.3 24 7 2 6 25% 1201 88446 14697 43%
c w 14.58 28 239 0 20 4131 25 58883 14894 3.3 24 7 2 6 25% 1201 88446 14697 43%
c d 14.58 28 239 0 20 4131 25 58883 14879 3.3 24 7 2 6 25% 1171 88446 14682 43%
c t 14.59 28 239 0 20 4131 25 58883 14879 3.3 24 7 2 6 25% 1166 88446 14682 43%
c f 14.60 28 239 0 20 4131 25 58883 14879 3.3 24 7 2 6 25% 1175 88404 14687 43%
c c 14.65 28 239 0 20 4131 25 58883 14771 3.3 24 7 2 6 25% 1272 87925 14630 43%
c d 14.65 28 239 0 20 4131 25 58883 14771 3.3 24 7 2 6 25% 1158 87925 14630 43%
c u 14.70 28 239 0 20 4131 25 58883 14353 3.3 24 7 2 6 25% 1173 87925 14630 43%
c v 14.74 28 239 0 20 4131 25 58883 13804 3.3 24 7 2 6 25% 1175 87925 14630 43%
c
c  seconds   switched     rate         size/glue tier1    binary         remaining
c         MB   reductions   conflicts        size  tier2     irredundant
c           level   restarts      redundant    glue   trail         variables
c
c w 14.75 28 239 0 20 4131 25 58883 13796 3.3 24 7 2 6 25% 1175 87925 14630 43%
c d 14.76 28 239 0 20 4131 25 58883 13786 3.3 24 7 2 6 25% 1157 87925 14621 43%
c t 14.76 28 239 0 20 4131 25 58883 13786 3.3 24 7 2 6 25% 1153 87925 14621 43%
c f 14.77 28 239 0 20 4131 25 58883 13786 3.3 24 7 2 6 25% 1157 87911 14623 43%
c - 15.00 27 231 0 21 4249 24 62667 15350 3.2 24 7 2 6 24% 1235 87911 14623 43%
c - 15.53 27 228 0 22 4553 24 67249 17727 3.2 23 7 2 6 25% 1295 87911 14623 43%
c o 15.84 27 229 0 22 4763 24 70184 20245 3.2 23 7 2 6 24% 1337 87911 14623 43%
c - 16.13 27 229 0 23 4947 24 71940 19730 3.2 24 7 2 6 24% 1358 87911 14623 43%
c - 16.78 27 227 0 24 5261 23 76736 21332 3.2 24 7 2 6 24% 1428 87911 14623 43%
c c 17.30 27 222 0 24 5500 23 79949 24092 3.2 24 7 2 6 24% 1588 86726 14437 42%
c d 17.30 27 222 0 24 5500 23 79949 23340 3.2 24 7 2 6 24% 1215 86726 14437 42%
c u 17.36 27 222 0 24 5500 23 79949 20182 3.2 24 7 2 6 24% 1260 86726 14437 42%
c v 17.43 27 222 0 24 5500 23 79949 18100 3.2 24 7 2 6 24% 1269 86726 14437 42%
c w 17.48 27 222 0 24 5500 23 79949 18100 3.2 24 7 2 6 24% 1269 86726 14437 42%
c = 17.71 27 222 0 24 5500 23 79949 18100 3.2 24 7 2 6 24% 1355 86726 14394 42%
c d 17.72 27 222 0 24 5500 23 79949 17969 3.2 24 7 2 6 24% 1200 86726 14372 42%
c t 17.73 27 222 0 24 5500 23 79949 17969 3.2 24 7 2 6 24% 1192 86726 14372 42%
c c 17.77 27 222 0 24 5500 23 79949 17969 3.2 24 7 2 6 24% 1212 86620 14360 42%
c d 17.78 27 222 0 24 5500 23 79949 17930 3.2 24 7 2 6 24% 1188 86620 14360 42%
c u 17.83 27 222 0 24 5500 23 79949 17251 3.2 24 7 2 6 24% 1196 86620 14360 42%
c
c  seconds   switched     rate         size/glue tier1    binary         remaining
c         MB   reductions   conflicts        size  tier2     irredundant
c           level   restarts      redundant    glue   trail         variables
c
c v 17.89 27 222 0 24 5500 23 79949 16758 3.2 24 7 2 6 24% 1197 86620 14360 42%
c w 17.94 27 222 0 24 5500 23 79949 16756 3.2 24 7 2 6 24% 1197 86620 14360 42%
c x 17.98 27 222 0 24 5500 23 79949 16755 3.2 24 7 2 6 24% 1199 86410 14360 42%
c d 17.98 27 222 0 24 5500 23 79949 16753 3.2 24 7 2 6 24% 1195 86410 14358 42%
c t 17.99 27 222 0 24 5500 23 79949 16753 3.2 24 7 2 6 24% 1193 86410 14358 42%
c - 18.07 27 225 0 25 5524 23 81635 14499 3.2 23 7 1 6 24% 1212 86410 14358 42%
c - 18.51 27 223 0 26 5777 22 86637 15868 3.1 23 7 1 6 23% 1286 86410 14358 42%
c - 18.91 27 216 0 27 5959 22 91736 17276 3.1 23 7 1 6 23% 1357 86410 14358 42%
c s 19.31 27 212 0 27 6183 21 95796 20756 3.1 23 7 1 6 23% 1392 86058 14358 42%
c e 19.38 27 212 0 27 6183 21 95796 20756 3.1 23 7 1 6 23% 748 87380 13990 41%
c s 19.38 27 212 0 27 6183 21 95796 20756 3.1 23 7 1 6 23% 755 86736 13990 41%
c e 19.39 27 212 0 27 6183 21 95796 20756 3.1 23 7 1 6 23% 750 86782 13970 41%
c ^ 19.39 27 212 0 27 6183 21 95796 20756 3.1 23 7 1 6 23% 750 86782 13970 41%
c - 19.50 27 212 0 28 6239 21 96932 16674 3.1 22 7 1 6 23% 759 86782 13970 41%
c - 20.06 27 205 0 29 6589 21 102223 18148 3.1 22 7 1 5 22% 834 86779 13970 41%
c d 20.20 27 204 0 29 6647 21 104564 19848 3.0 22 7 1 5 22% 768 86779 13919 41%
c u 20.25 27 204 0 29 6647 21 104564 18159 3.0 22 7 1 5 22% 800 86779 13919 41%
c v 20.34 27 204 0 29 6647 21 104564 15826 3.0 22 7 1 5 22% 816 86779 13919 41%
c w 20.42 27 204 0 29 6647 21 104564 15487 3.0 22 7 1 5 22% 818 86779 13919 41%
c = 20.67 27 204 0 29 6647 21 104564 15487 3.0 22 7 1 5 22% 1310 86779 13673 40%
c
c  seconds   switched     rate          size/glue tier1   binary         remaining
c         MB   reductions   conflicts         size  tier2    irredundant
c           level   restarts       redundant    glue   trail        variables
c
c d 20.68 27 204 0 29 6647 21 104564 14960 3.0 22 7 1 5 22% 701 86779 13670 40%
c t 20.69 27 204 0 29 6647 21 104564 14960 3.0 22 7 1 5 22% 681 86779 13670 40%
c f 20.72 27 204 0 29 6647 21 104564 14960 3.0 22 7 1 5 22% 690 86741 13673 40%
c c 20.76 27 204 0 29 6647 21 104564 14898 3.0 22 7 1 5 22% 720 86604 13657 40%
c d 20.77 27 204 0 29 6647 21 104564 14898 3.0 22 7 1 5 22% 688 86604 13657 40%
c u 20.80 27 204 0 29 6647 21 104564 14477 3.0 22 7 1 5 22% 694 86604 13657 40%
c v 20.84 27 204 0 29 6647 21 104564 13796 3.0 22 7 1 5 22% 695 86604 13657 40%
c w 20.89 27 204 0 29 6647 21 104564 13646 3.0 22 7 1 5 22% 695 86604 13657 40%
c x 20.93 27 204 0 29 6647 21 104564 13645 3.0 22 7 1 5 22% 704 86512 13657 40%
c = 21.02 27 204 0 29 6647 21 104564 13645 3.0 22 7 1 5 22% 866 86512 13576 40%
c d 21.02 27 204 0 29 6647 21 104564 13616 3.0 22 7 1 5 22% 693 86512 13574 40%
c t 21.03 27 204 0 29 6647 21 104564 13616 3.0 22 7 1 5 22% 673 86512 13574 40%
c f 21.04 27 204 0 29 6647 21 104564 13616 3.0 22 7 1 5 22% 679 86488 13576 40%
c - 21.61 27 202 0 30 7009 21 107610 14349 3.1 22 7 1 5 23% 689 86488 13576 40%
c o 22.00 27 200 0 30 7288 21 110186 16700 3.1 23 7 1 5 23% 702 86488 13576 40%
c - 22.24 27 199 0 31 7450 21 113087 16899 3.1 22 7 1 5 23% 719 86487 13576 40%
c - 23.12 27 195 0 32 8086 21 118654 18796 3.1 23 7 1 5 23% 777 86487 13576 40%
c - 23.84 27 194 0 33 8580 21 124311 20306 3.1 23 7 1 5 23% 833 86487 13576 40%
c - 24.87 27 190 0 34 9260 22 130056 21820 3.1 23 8 1 5 24% 871 86487 13576 40%
c c 25.31 27 187 0 34 9541 22 132809 24189 3.1 24 8 1 5 24% 989 85755 13471 40%
c
c  seconds   switched     rate          size/glue tier1   binary         remaining
c         MB   reductions   conflicts         size  tier2    irredundant
c           level   restarts       redundant    glue   trail        variables
c
c d 25.31 27 187 0 34 9541 22 132809 23817 3.1 24 8 1 5 24% 779 85755 13471 40%
c u 25.36 27 187 0 34 9541 22 132809 21882 3.1 24 8 1 5 24% 803 85755 13471 40%
c v 25.44 27 187 0 34 9541 22 132809 18623 3.1 24 8 1 5 24% 810 85755 13471 40%
c w 25.56 27 187 0 34 9541 22 132809 18598 3.1 24 8 1 5 24% 810 85755 13471 40%
c x 25.64 27 187 0 34 9541 22 132809 18588 3.1 24 8 1 5 24% 823 82563 13471 40%
c = 26.05 27 187 0 34 9541 22 132809 18588 3.1 24 8 1 5 24% 1397 82540 13184 39%
c d 26.06 27 187 0 34 9541 22 132809 18261 3.1 24 8 1 5 24% 757 82538 13183 39%
c t 26.07 27 187 0 34 9541 22 132809 18261 3.1 24 8 1 5 24% 735 82538 13183 39%
c u 26.16 27 187 0 34 9541 22 132809 17693 3.1 24 8 1 5 24% 735 82538 13183 39%
c v 26.22 27 187 0 34 9541 22 132809 16943 3.1 24 8 1 5 24% 738 82538 13183 39%
c w 26.36 27 187 0 34 9541 22 132809 16562 3.1 24 8 1 5 24% 738 82538 13183 39%
c x 26.46 27 187 0 34 9541 22 132809 16559 3.1 24 8 1 5 24% 739 81244 13183 39%
c t 26.84 27 187 0 34 9541 22 132809 16559 3.1 24 8 1 5 24% 738 81244 13183 39%
c - 27.18 27 186 0 35 9784 21 135886 16844 3.1 24 8 1 5 24% 758 81244 13183 39%
c - 28.12 27 185 0 36 10484 22 141803 19511 3.2 25 8 1 5 25% 774 81244 13183 39%
c - 29.01 27 183 0 37 11083 22 147803 21704 3.2 25 8 1 5 26% 789 81243 13183 39%
c - 29.83 27 180 0 38 11608 22 153885 23319 3.2 25 8 1 5 26% 807 81242 13183 39%
c s 30.31 27 181 0 38 11898 22 157858 26829 3.2 26 8 1 5 26% 824 80229 13183 39%
c e 30.40 27 181 0 38 11898 22 157858 26829 3.2 26 8 1 5 26% 678 90973 11784 35%
c 2 30.40 27 181 0 38 11898 22 157858 26829 3.2 26 8 1 5 26% 675 90973 11784 35%
c
c  seconds   switched      rate          size/glue tier1   binary         remaining
c         MB   reductions    conflicts         size  tier2    irredundant
c           level   restarts        redundant    glue   trail        variables
c
c s 30.42 27 181 0 38 11898 22 157858 26829 3.2 26 8 1 5 26% 678 89480 11784 35%
c e 30.43 27 181 0 38 11898 22 157858 26829 3.2 26 8 1 5 26% 664 89565 11754 35%
c ^ 30.43 27 181 0 38 11898 22 157858 26829 3.2 26 8 1 5 26% 664 89565 11754 35%
c - 30.71 27 180 0 39 12050 22 160049 19158 3.2 26 8 1 5 27% 668 89559 11754 35%
c o 30.72 27 180 0 39 12053 22 160227 19329 3.2 25 8 1 5 27% 669 89559 11754 35%
c d 31.25 27 178 0 39 12394 22 164802 23619 3.1 26 8 1 5 27% 672 89559 11752 35%
c u 31.29 27 178 0 39 12394 22 164802 21633 3.1 26 8 1 5 27% 680 89559 11752 35%
c v 31.35 27 178 0 39 12394 22 164802 18703 3.1 26 8 1 5 27% 689 89559 11752 35%
c w 31.50 27 178 0 39 12394 22 164802 18598 3.1 26 8 1 5 27% 689 89559 11752 35%
c x 31.57 27 178 0 39 12394 22 164802 18582 3.1 26 8 1 5 27% 723 89451 11752 35%
c d 31.57 27 178 0 39 12394 22 164802 18574 3.1 26 8 1 5 27% 717 89451 11749 35%
c t 31.58 27 178 0 39 12394 22 164802 18574 3.1 26 8 1 5 27% 662 89451 11749 35%
c c 31.68 27 178 0 39 12394 22 164802 18566 3.1 26 8 1 5 27% 673 89383 11742 34%
c d 31.69 27 178 0 39 12394 22 164802 18564 3.1 26 8 1 5 27% 659 89383 11742 34%
c u 31.72 27 178 0 39 12394 22 164802 18145 3.1 26 8 1 5 27% 661 89383 11742 34%
c v 31.76 27 178 0 39 12394 22 164802 17562 3.1 26 8 1 5 27% 661 89383 11742 34%
c w 32.01 27 178 0 39 12394 22 164802 17017 3.1 26 8 1 5 27% 661 89383 11742 34%
c d 32.46 27 178 0 39 12394 22 164802 17017 3.1 26 8 1 5 27% 659 89375 11741 34%
c - 32.66 27 177 0 40 12499 21 166293 16004 3.1 25 8 1 5 27% 662 89375 11741 34%
c - 33.20 27 173 0 41 12818 21 172619 18750 3.1 25 8 1 5 26% 682 89375 11741 34%
c
c  seconds   switched      rate          size/glue tier1   binary         remaining
c         MB   reductions    conflicts         size  tier2    irredundant
c           level   restarts        redundant    glue   trail        variables
c
c - 34.02 27 170 0 42 13401 21 179022 21135 3.1 25 8 1 5 27% 689 89374 11741 34%
c - 34.70 27 167 0 43 13822 21 185502 22655 3.1 25 8 1 5 27% 703 89371 11741 34%
c - 35.30 27 163 0 44 14222 20 192059 23708 3.0 25 8 1 5 27% 737 89371 11741 34%
c - 35.89 27 159 0 45 14687 20 198693 24528 3.0 24 8 1 5 27% 777 89371 11741 34%
c d 36.00 27 157 0 45 14755 19 200592 25903 2.9 24 8 1 5 27% 745 89361 11715 34%
c u 36.06 27 157 0 45 14755 19 200592 24108 2.9 24 8 1 5 27% 763 89361 11715 34%
c v 36.15 27 157 0 45 14755 19 200592 20540 2.9 24 8 1 5 27% 769 89361 11715 34%
c w 36.21 27 157 0 45 14755 19 200592 20180 2.9 24 8 1 5 27% 769 89361 11715 34%
c x 36.28 27 157 0 45 14755 19 200592 20142 2.9 24 8 1 5 27% 770 88896 11715 34%
c d 36.29 27 157 0 45 14755 19 200592 20139 2.9 24 8 1 5 27% 764 88896 11712 34%
c t 36.30 27 157 0 45 14755 19 200592 20139 2.9 24 8 1 5 27% 745 88896 11712 34%
c u 36.36 27 157 0 45 14755 19 200592 19754 2.9 24 8 1 5 27% 749 88896 11712 34%
c v 36.41 27 157 0 45 14755 19 200592 19110 2.9 24 8 1 5 27% 749 88896 11712 34%
c w 36.46 27 157 0 45 14755 19 200592 18921 2.9 24 8 1 5 27% 749 88896 11712 34%
c x 36.58 27 157 0 45 14755 19 200592 18910 2.9 24 8 1 5 27% 752 88519 11712 34%
c d 36.58 27 157 0 45 14755 19 200592 18908 2.9 24 8 1 5 27% 750 88519 11711 34%
c t 36.59 27 157 0 45 14755 19 200592 18908 2.9 24 8 1 5 27% 747 88519 11711 34%
c - 36.99 27 154 0 46 14984 19 205401 19482 2.9 24 8 1 5 27% 761 88519 11711 34%
c - 37.34 27 149 0 47 15237 18 212183 21542 2.9 23 8 1 5 26% 795 88517 11711 34%
c - 37.79 27 144 0 48 15540 17 219040 23148 2.8 23 8 1 5 25% 836 88516 11711 34%
c
c  seconds   switched      rate          size/glue tier1   binary         remaining
c         MB   reductions    conflicts         size  tier2    irredundant
c           level   restarts        redundant    glue   trail        variables
c
c o 37.86 27 143 0 48 15603 17 220239 24217 2.8 23 8 1 5 25% 844 88516 11711 34%
c - 38.16 27 139 0 49 15809 17 225969 24322 2.8 22 8 1 5 25% 889 88515 11711 34%
c - 38.43 27 134 0 50 16055 16 232971 25034 2.7 22 8 1 5 24% 937 88515 11711 34%
c s 38.66 28 127 0 50 16301 15 239988 31430 2.7 22 8 1 5 23% 968 88485 11711 34%
c e 38.80 28 127 0 50 16301 15 239988 31430 2.7 22 8 1 5 23% 633 102638 10560 31%
c 2 38.80 28 127 0 50 16301 15 239988 31430 2.7 22 8 1 5 23% 632 102638 10560 31%
c s 38.83 28 127 0 50 16301 15 239988 31430 2.7 22 8 1 5 23% 634 99072 10560 31%
c e 38.87 28 127 0 50 16301 15 239988 31430 2.7 22 8 1 5 23% 625 99330 10538 31%
c ! 38.87 28 127 0 50 16301 15 239988 31430 2.7 22 8 1 5 23% 625 99330 10538 31%
c - 38.89 28 127 0 51 16303 15 240043 15559 2.7 22 8 1 5 23% 625 99330 10538 31%
c c 38.92 28 127 0 51 16304 15 240261 15743 2.7 22 8 1 5 23% 667 99108 10516 31%
c d 38.92 28 127 0 51 16304 15 240261 15705 2.7 22 8 1 5 23% 623 99108 10516 31%
c u 38.95 28 127 0 51 16304 15 240261 14049 2.7 22 8 1 5 23% 632 99108 10516 31%
c v 38.98 28 127 0 51 16304 15 240261 12813 2.7 22 8 1 5 23% 638 99108 10516 31%
c w 38.99 28 127 0 51 16304 15 240261 12745 2.7 22 8 1 5 23% 638 99108 10516 31%
c d 39.23 28 127 0 51 16304 15 240261 12745 2.7 22 8 1 5 23% 630 99102 10512 31%
c t 39.23 28 127 0 51 16304 15 240261 12745 2.7 22 8 1 5 23% 620 99102 10512 31%
c f 39.29 28 127 0 51 16304 15 240261 12745 2.7 22 8 1 5 23% 635 98928 10518 31%
c u 39.32 28 127 0 51 16304 15 240261 12562 2.7 22 8 1 5 23% 638 98928 10518 31%
c v 39.34 28 127 0 51 16304 15 240261 12305 2.7 22 8 1 5 23% 639 98928 10518 31%
c
c  seconds   switched      rate          size/glue tier1   binary         remaining
c         MB   reductions    conflicts         size  tier2    irredundant
c           level   restarts        redundant    glue   trail        variables
c
c w 39.35 28 127 0 51 16304 15 240261 12273 2.7 22 8 1 5 23% 639 98928 10518 31%
c x 39.42 28 127 0 51 16304 15 240261 12243 2.7 22 8 1 5 23% 683 98566 10518 31%
c d 39.42 28 127 0 51 16304 15 240261 12242 2.7 22 8 1 5 23% 679 98566 10516 31%
c t 39.43 28 127 0 51 16304 15 240261 12242 2.7 22 8 1 5 23% 635 98566 10516 31%
c f 39.48 28 127 0 51 16304 15 240261 12242 2.7 22 8 1 5 23% 655 98528 10517 31%
c - 39.67 28 122 0 52 16596 14 247188 15554 2.7 21 8 1 5 22% 682 98506 10517 31%
c - 39.83 28 116 0 53 16778 14 254401 18919 2.7 21 8 1 5 21% 710 98504 10517 31%
c i 39.86 28 114 0 53 16803 13 256625 20733 2.7 21 8 1 5 20% 719 98504 10516 31%
c i 39.86 28 114 0 53 16803 13 256870 20865 2.7 21 8 1 5 20% 726 98504 10515 31%
c i 39.86 28 114 0 53 16803 13 256883 20872 2.7 21 8 1 5 20% 727 98504 10514 31%
c i 39.86 28 114 0 53 16803 13 256944 20903 2.7 21 8 1 5 20% 732 98503 10512 31%
c i 39.86 28 114 0 53 16803 13 256948 20902 2.7 21 8 1 5 20% 734 98503 10510 31%
c i 39.86 28 114 0 53 16803 13 256954 20905 2.7 21 8 1 5 20% 735 98503 10507 31%
c i 39.86 28 114 0 53 16803 13 256955 20905 2.7 21 8 1 5 20% 735 98503 10500 31%
c i 39.86 28 114 0 53 16803 13 256956 20905 2.7 21 8 1 5 20% 735 98503 10493 31%
c i 39.86 28 114 0 53 16803 13 256957 20904 2.7 21 8 1 5 20% 735 98503 10491 31%
c } 39.86 28 114 0 53 16803 13 256959 20904 2.7 21 8 1 5 20% 735 98503 10479 31%
c 0 39.86 28 114 0 53 16803 13 256959 20904 2.7 21 8 1 5 20% 735 98503 10479 31%
c
c ---- [ result ] ------------------------------------------------------------
c
s UNSATISFIABLE
c
c ---- [ profiling ] ---------------------------------------------------------
c
c          29.03   72.82 %  search
c          29.03   72.82 %  focused
c          10.33   25.92 %  simplify
c           9.70   24.34 %  probe
c           4.16   10.43 %  vivify
c           3.44    8.64 %  sweep
c           0.86    2.16 %  eliminate
c           0.77    1.92 %  factor
c           0.67    1.67 %  congruence
c           0.54    1.35 %  substitute
c           0.44    1.10 %  preprocess
c           0.24    0.59 %  reduce
c           0.20    0.50 %  fastel
c           0.14    0.35 %  subsume
c           0.08    0.21 %  transitive
c           0.05    0.12 %  backbone
c           0.04    0.10 %  lucky
c           0.03    0.06 %  parse
c =============================================
c          39.86  100.00 %  total
c
c ---- [ statistics ] --------------------------------------------------------
c
c chronological:                         7582                3 %  conflicts
c conflicts:                           256959             6446.17 per second
c congruent:                             7585               22 %  variables
c decisions:                          4384720               17.06 per conflict
c eliminated:                           13621               40 %  variables
c factored:                              3336               10 %  variables
c fast_eliminated:                       9946               73 %  eliminated
c fast_strengthened:                       24                0 %  per strengthened
c fast_subsumed:                          129                0 %  per subsumed
c iterations:                              10                0 %  variables
c propagations:                     168613503          4229899    per second
c reductions:                              53             4848    interval
c reordered:                                7            36708    interval
c restarts:                             16803               15    interval
c strengthened:                          8940                0 %  checks
c substituted:                          13234               39 %  variables
c subsumed:                             35551                1 %  checks
c switched:                                 0                0    interval
c vivified:                             80870               12 %  checks
c
c ---- [ glue usage ] --------------------------------------------------------
c
c focused glue 1 used 478432 clauses 56.86% accumulated 56.86% tier1
c focused glue 2 used 161696 clauses 19.22% accumulated 76.07%
c focused glue 3 used  60393 clauses  7.18% accumulated 83.25%
c focused glue 4 used  36114 clauses  4.29% accumulated 87.54%
c focused glue 5 used  24168 clauses  2.87% accumulated 90.41% tier2
c
c ---- [ resources ] ---------------------------------------------------------
c
c maximum-resident-set-size:         29233152 bytes         28 MB
c process-time:                            40s              39.86 seconds
c
c ---- [ shutting down ] -----------------------------------------------------
c
c exit 20
